100 10
774 180
264 546
493 892
223 571
550 400
653 310
593 542
477 531
465 203
694 590
456 873
452 696
525 728
208 496
659 737
185 462
426 286
622 624
395 760
790 556
891 490
706 449
920 939
759 773
290 532
519 631
671 417
491 599
650 714
533 420
307 869
437 852
831 804
663 522
862 810
412 511
994 434
476 794
683 218
449 905
755 520
585 897
674 362
125 402
454 858
568 580
295 292
870 695
452 450
675 765
583 406
714 403
563 596
320 522
952 730
595 813
450 726
954 487
676 471
428 612
484 772
426 848
635 741
741 582
625 799
405 557
685 748
760 539
872 528
886 763
440 243
693 138
926 792
909 632
395 517
488 587
781 592
672 718
304 142
968 590
560 335
362 310
379 263
421 614
838 730
577 917
665 327
449 748
515 827
193 701
690 851
662 569
508 786
359 926
817 472
523 545
604 866
460 820
910 846
374 648
